c random formula
p cnf 10 30
9 -2 0
-6 -1 0
1 -7 0
2 -5 0
-7 8 0
2 -5 0
-7 10 0
-6 -4 0
5 1 0
-10 -4 0
3 10 0
-7 4 0
-2 7 0
-1 3 0
-8 1 0
1 -5 0
8 -9 0
9 3 0
3 -10 0
-3 1 0
5 7 0
-1 10 0
6 -1 0
-7 -3 0
8 4 0
8 -7 0
-3 2 0
5 -6 0
-7 8 0
5 7 0
